GLPSOL: GLPK LP/MIP Solver, v4.57
Parameter(s) specified in the command line:
 -m shortest_paths_with_parity.mod -d data/data_7_30.dat -o outputs/output_7_30.txt
Reading model section from shortest_paths_with_parity.mod...
41 lines were read
Reading data section from data/data_7_30.dat...
data/data_7_30.dat:2448: warning: final NL missing before end of file
2448 lines were read
Generating obj...
Generating cons1O1...
Generating cons1O2...
Generating cons1NotOD...
Generating cons1D1...
shortest_paths_with_parity.mod:27: S[30] out of domain
MathProg model processing error
